100
0   502   505
1   501   503
2   501   504
3   504   504
4   504   502
5   501   504
6   501   504
7   504   505
8   501   504
9   503   502
10   505   501
11   253   251
12   251   251
13   255   251
14   254   252
15   254   251
16   255   252
17   254   254
18   255   252
19   253   252
20   252   254
21   253   251
22   129   130
23   126   127
24   128   126
25   128   130
26   129   130
27   127   128
28   128   130
29   129   130
30   129   130
31   126   129
32   127   129
33   66   64
34   65   67
35   65   63
36   66   67
37   63   64
38   67   66
39   65   66
40   63   66
41   63   65
42   67   67
43   67   66
44   33   33
45   36   33
46   32   33
47   36   36
48   33   35
49   36   34
50   36   34
51   35   34
52   36   36
53   32   35
54   36   33
55   20   20
56   17   19
57   16   19
58   18   20
59   20   17
60   20   19
61   19   18
62   19   18
63   16   20
64   20   20
65   20   18
66   11   12
67   8   9
68   9   12
69   12   9
70   8   12
71   10   8
72   8   8
73   8   11
74   8   10
75   9   10
76   8   12
77   5   6
78   6   4
79   5   5
80   6   8
81   5   6
82   6   7
83   6   7
84   7   4
85   4   6
86   7   6
87   7   5
88   3   1
89   3   5
90   2   5
91   4   1
92   2   1
93   4   2
94   1   2
95   4   5
96   4   5
97   2   5
98   4   2
99   5   1
1000
